33D32945 STP File, STP Format Version 1.0

SECTION Comments
Name "edge_n12_d2_s23"
Problem "Euclidean Steiner Tree Problem"
Remark "Generated with STPGenerator. 2 dimensions."
END

SECTION Graph
Nodes 12
END

SECTION Coordinates
DD 0 0.7275817463 0.7275817463
DD 1 0.4842158102 0.4842158102
DD 2 0.9432684327 0.9432684327
DD 3 0.3444002356 0.3444002356
DD 4 0.4630026335 0.4630026335
DD 5 0.5578971945 0.5578971945
DD 6 0.2818813474 0.2818813474
DD 7 0.2621717841 0.2621717841
DD 8 0.5012496633 0.5012496633
DD 9 0.9217083640 0.9217083640
DD 10 0.6899727819 0.6899727819
DD 11 0.1938467460 0.1938467460
END
